p edge 75 555
e 1 12
e 1 13
e 1 25
e 1 27
e 1 43
e 1 48
e 1 51
e 1 52
e 1 58
e 1 59
e 1 62
e 1 73
e 2 3
e 2 7
e 2 15
e 2 20
e 2 33
e 2 35
e 2 44
e 2 50
e 2 51
e 2 65
e 2 72
e 3 4
e 3 6
e 3 11
e 3 20
e 3 29
e 3 37
e 3 45
e 3 49
e 3 53
e 3 67
e 3 74
e 4 7
e 4 10
e 4 17
e 4 19
e 4 38
e 4 41
e 4 43
e 4 48
e 4 65
e 4 67
e 5 18
e 5 20
e 5 22
e 5 25
e 5 31
e 5 35
e 5 42
e 5 58
e 5 65
e 5 74
e 5 75
e 6 12
e 6 17
e 6 23
e 6 30
e 6 34
e 6 44
e 6 45
e 6 55
e 6 61
e 6 63
e 6 68
e 6 69
e 7 11
e 7 12
e 7 14
e 7 16
e 7 20
e 7 23
e 7 27
e 7 33
e 7 41
e 7 43
e 7 46
e 7 54
e 7 56
e 7 63
e 7 68
e 7 71
e 7 73
e 7 75
e 8 20
e 8 27
e 8 28
e 8 29
e 8 38
e 8 45
e 8 48
e 8 51
e 8 55
e 8 61
e 8 64
e 8 65
e 8 66
e 8 70
e 8 73
e 9 10
e 9 17
e 9 21
e 9 24
e 9 35
e 9 41
e 9 52
e 9 58
e 9 69
e 9 73
e 9 74
e 10 11
e 10 16
e 10 23
e 10 35
e 10 37
e 10 46
e 10 52
e 10 59
e 10 62
e 10 73
e 11 12
e 11 13
e 11 19
e 11 28
e 11 34
e 11 50
e 11 52
e 11 53
e 11 56
e 11 59
e 11 72
e 12 17
e 12 18
e 12 21
e 12 24
e 12 34
e 12 41
e 12 45
e 12 49
e 12 50
e 12 51
e 12 62
e 12 64
e 12 66
e 12 70
e 12 73
e 12 74
e 13 21
e 13 23
e 13 26
e 13 28
e 13 29
e 13 35
e 13 44
e 13 47
e 13 52
e 13 69
e 13 71
e 13 72
e 14 19
e 14 22
e 14 25
e 14 28
e 14 30
e 14 46
e 14 51
e 14 52
e 15 27
e 15 35
e 15 48
e 15 50
e 15 54
e 15 62
e 15 63
e 15 66
e 15 67
e 15 73
e 16 18
e 16 30
e 16 31
e 16 33
e 16 34
e 16 38
e 16 43
e 16 44
e 16 47
e 16 50
e 16 52
e 16 57
e 16 65
e 16 74
e 17 20
e 17 27
e 17 38
e 17 51
e 17 56
e 17 60
e 17 69
e 17 73
e 18 29
e 18 32
e 18 34
e 18 35
e 18 40
e 18 44
e 18 48
e 18 49
e 18 55
e 18 62
e 18 64
e 18 68
e 18 75
e 19 21
e 19 22
e 19 23
e 19 42
e 19 43
e 19 51
e 19 57
e 19 60
e 19 61
e 19 67
e 19 72
e 19 74
e 20 24
e 20 26
e 20 29
e 20 30
e 20 32
e 20 35
e 20 38
e 20 39
e 20 42
e 20 45
e 20 46
e 20 51
e 20 55
e 20 57
e 20 63
e 20 64
e 20 65
e 20 68
e 20 71
e 20 73
e 21 25
e 21 33
e 21 43
e 21 50
e 21 52
e 21 54
e 21 58
e 21 60
e 21 67
e 21 69
e 21 71
e 21 75
e 22 25
e 22 26
e 22 36
e 22 39
e 22 53
e 22 70
e 23 28
e 23 32
e 23 33
e 23 39
e 23 42
e 23 43
e 23 47
e 23 50
e 23 54
e 23 60
e 23 62
e 23 72
e 23 74
e 24 39
e 24 45
e 24 55
e 24 58
e 24 69
e 24 72
e 24 74
e 25 26
e 25 28
e 25 31
e 25 37
e 25 39
e 25 45
e 25 46
e 25 51
e 25 58
e 25 67
e 25 68
e 25 71
e 26 28
e 26 31
e 26 32
e 26 33
e 26 39
e 26 40
e 26 52
e 26 54
e 26 56
e 26 58
e 26 60
e 26 61
e 27 31
e 27 33
e 27 34
e 27 36
e 27 37
e 27 44
e 27 47
e 27 52
e 27 54
e 27 55
e 27 59
e 27 70
e 28 31
e 28 38
e 28 39
e 28 43
e 28 49
e 28 57
e 28 64
e 28 70
e 28 73
e 29 34
e 29 35
e 29 41
e 29 45
e 29 47
e 29 50
e 29 51
e 29 54
e 29 56
e 29 63
e 29 64
e 29 72
e 29 74
e 30 31
e 30 32
e 30 44
e 30 45
e 30 55
e 30 61
e 30 65
e 31 32
e 31 33
e 31 36
e 31 41
e 31 43
e 31 44
e 31 49
e 31 57
e 31 61
e 31 63
e 32 36
e 32 44
e 32 52
e 32 53
e 32 56
e 32 58
e 32 60
e 32 65
e 33 40
e 33 43
e 33 46
e 33 49
e 33 52
e 33 53
e 33 65
e 33 66
e 33 71
e 34 36
e 34 42
e 34 50
e 34 52
e 34 53
e 34 54
e 34 67
e 34 68
e 34 71
e 34 72
e 34 74
e 35 37
e 35 40
e 35 50
e 35 56
e 35 60
e 35 61
e 35 63
e 35 69
e 36 45
e 36 49
e 36 56
e 36 58
e 36 69
e 36 71
e 37 38
e 37 39
e 37 42
e 37 45
e 37 59
e 37 64
e 37 68
e 38 44
e 38 47
e 38 48
e 38 50
e 38 54
e 38 63
e 38 64
e 38 69
e 38 74
e 39 61
e 39 65
e 39 68
e 40 41
e 40 43
e 40 46
e 40 47
e 40 64
e 40 71
e 41 44
e 41 54
e 41 60
e 41 62
e 41 63
e 41 66
e 41 70
e 42 45
e 42 47
e 42 61
e 42 71
e 43 49
e 43 56
e 43 59
e 43 67
e 43 71
e 44 45
e 44 46
e 44 50
e 44 59
e 44 64
e 44 68
e 45 47
e 45 64
e 45 66
e 45 71
e 45 75
e 46 55
e 46 57
e 46 59
e 46 60
e 46 62
e 46 63
e 46 64
e 46 66
e 46 67
e 47 49
e 47 50
e 47 51
e 47 56
e 47 63
e 48 49
e 48 50
e 48 56
e 48 57
e 48 61
e 48 67
e 49 51
e 49 54
e 49 56
e 49 63
e 49 66
e 49 73
e 50 52
e 50 56
e 50 58
e 50 60
e 50 66
e 50 67
e 50 69
e 50 71
e 50 72
e 50 73
e 50 75
e 51 57
e 51 60
e 51 67
e 52 54
e 52 63
e 52 67
e 52 73
e 53 59
e 53 60
e 53 64
e 53 70
e 53 71
e 54 57
e 54 61
e 54 62
e 54 63
e 54 71
e 54 72
e 55 57
e 55 58
e 55 59
e 55 66
e 56 58
e 56 59
e 56 60
e 56 70
e 56 75
e 57 64
e 57 68
e 57 69
e 57 70
e 57 73
e 58 63
e 58 66
e 58 68
e 58 69
e 58 70
e 59 66
e 59 68
e 59 71
e 60 70
e 60 71
e 60 72
e 61 67
e 61 71
e 61 75
e 62 63
e 62 70
e 63 69
e 63 72
e 63 75
e 64 67
e 64 72
e 65 69
e 65 72
e 65 74
e 65 75
e 66 67
e 66 72
e 66 75
e 67 74
e 68 69
e 68 70
e 69 71
e 70 73
e 72 75
